Normalized Data/p04_27_normalized_splitx10_0.vrp
NAME:p04_27_NORMALIZED_splitx10_
BEST_KNOWN: 0
COMMENT: 0
DIMENSION: 621
CAPACITY: 1000
EDGE_WEIGHT_FORMAT: FUNCTION
EDGE_WEIGHT_TYPE: EXACT_2D
NODE_COORD_SECTION
1 0.00000 0.00000
2 -37 42
3 -37 42
4 -37 42
5 -37 42
6 -37 42
7 -37 42
8 -12 -49
9 -12 -49
10 -12 -49
11 -16 40
12 -16 40
13 -16 40
14 48 -29
15 48 -29
16 48 -29
17 -17 23
18 -17 23
19 -16 -34
20 -15 13
21 -15 13
22 -15 13
23 -15 7
24 -15 7
25 -15 7
26 -15 7
27 2 30
28 2 30
29 2 30
30 2 30
31 2 30
32 -15 46
33 -15 46
34 -35 30
35 -35 30
36 -35 30
37 -35 30
38 -35 30
39 -35 30
40 -37 -34
41 -37 -34
42 -37 -34
43 47 -24
44 47 -24
45 -40 13
46 -40 13
47 -40 13
48 -40 13
49 -40 13
50 27 18
51 27 18
52 18 7
53 18 7
54 18 7
55 18 7
56 18 7
57 30 16
58 30 16
59 30 16
60 30 16
61 4 -28
62 4 -28
63 4 -28
64 4 -28
65 4 -28
66 29 35
67 29 35
68 29 35
69 29 35
70 47 15
71 47 15
72 -27 -6
73 -27 -6
74 -27 -6
75 -27 -6
76 -27 -6
77 -23 26
78 -23 26
79 -23 26
80 -23 26
81 -23 26
82 -23 26
83 -6 15
84 -6 15
85 -46 10
86 -46 10
87 -46 10
88 3 -35
89 3 -35
90 3 -35
91 3 -35
92 3 -35
93 3 -35
94 -31 -35
95 -31 -35
96 -31 -35
97 -31 -35
98 -31 -35
99 -43 22
100 -43 22
101 -43 22
102 -43 22
103 27 49
104 27 49
105 27 49
106 27 49
107 27 49
108 27 49
109 32 -42
110 32 -42
111 32 -42
112 32 -42
113 0 -16
114 0 -16
115 0 -16
116 0 -16
117 0 -16
118 0 -16
119 5 44
120 5 44
121 5 44
122 5 44
123 5 44
124 -43 -48
125 -43 -48
126 -43 -48
127 -43 -48
128 -10 9
129 -10 9
130 -10 9
131 -10 9
132 -10 9
133 -10 9
134 19 40
135 19 40
136 19 40
137 19 40
138 19 40
139 19 40
140 19 40
141 45 -14
142 45 -14
143 45 -14
144 45 -14
145 45 -14
146 -13 3
147 23 -22
148 23 -22
149 23 -22
150 23 -22
151 23 -22
152 -7 31
153 -28 -50
154 -28 -50
155 -28 -50
156 -28 -50
157 -28 -50
158 -28 -50
159 39 -27
160 39 -27
161 48 -19
162 48 -19
163 48 -19
164 48 -19
165 -8 -11
166 -8 -11
167 -33 -16
168 -33 -16
169 -33 -16
170 -33 -16
171 12 -46
172 12 -46
173 12 -46
174 12 -46
175 12 -46
176 48 25
177 48 25
178 -33 -17
179 -33 -17
180 -33 -17
181 46 -46
182 46 -46
183 46 -46
184 -9 -8
185 -9 -8
186 -9 -8
187 -9 -8
188 -40 1
189 -40 1
190 -40 1
191 -40 1
192 -40 1
193 -40 1
194 28 -23
195 -32 -43
196 -32 -43
197 -32 -43
198 -18 -12
199 -18 -12
200 -18 -12
201 26 27
202 26 27
203 26 27
204 26 27
205 26 27
206 26 27
207 49 -30
208 49 -30
209 49 -30
210 49 -30
211 49 -30
212 49 -30
213 -12 -25
214 -12 -25
215 -12 -25
216 -12 -25
217 -2 3
218 -2 3
219 -2 3
220 -46 0
221 -46 0
222 -46 0
223 -46 0
224 8 -38
225 8 -38
226 8 -38
227 8 -38
228 8 -38
229 23 7
230 23 7
231 23 7
232 48 -24
233 48 -24
234 48 -24
235 48 -24
236 -33 -31
237 -33 -31
238 -33 -31
239 -33 -31
240 -33 -31
241 37 16
242 37 16
243 37 16
244 -19 34
245 -19 34
246 -19 34
247 -19 34
248 -19 34
249 -19 34
250 -49 39
251 -49 39
252 -5 -23
253 -5 -23
254 -5 -23
255 -5 -23
256 41 -11
257 41 -11
258 41 -11
259 41 -11
260 41 -11
261 19 -34
262 19 -34
263 19 -34
264 19 -34
265 19 -34
266 19 -34
267 19 -34
268 -18 -24
269 -18 -24
270 38 -25
271 38 -25
272 38 -25
273 38 -25
274 38 -25
275 38 -25
276 8 -46
277 8 -46
278 8 -46
279 8 -46
280 8 -46
281 8 -46
282 -23 -43
283 -23 -43
284 -23 -43
285 -23 -43
286 -23 -43
287 -23 -43
288 -40 -10
289 -40 -10
290 -40 -10
291 -40 -10
292 -13 -48
293 -13 -48
294 -13 -48
295 -13 -48
296 -13 -48
297 -13 -48
298 41 -28
299 41 -28
300 41 -28
301 43 15
302 43 15
303 43 15
304 43 15
305 43 15
306 43 15
307 -43 9
308 -43 9
309 -43 9
310 -43 9
311 -43 9
312 -5 -46
313 -5 -46
314 -5 -46
315 -5 -46
316 30 -11
317 30 -11
318 30 -11
319 23 -39
320 23 -39
321 23 -39
322 23 -39
323 -31 -40
324 -31 -40
325 -31 -40
326 -31 -40
327 -31 -40
328 -5 17
329 -5 17
330 -5 17
331 -5 17
332 -5 17
333 -5 17
334 -5 17
335 -48 34
336 -48 34
337 -48 34
338 -48 34
339 -48 34
340 -43 -50
341 -43 -50
342 -43 -50
343 -43 -50
344 39 47
345 39 47
346 39 47
347 -39 36
348 -39 36
349 -39 36
350 -39 36
351 -39 36
352 -39 36
353 -14 0
354 -14 0
355 -14 0
356 14 36
357 14 36
358 14 36
359 14 36
360 -2 -33
361 -2 -33
362 -2 -33
363 -2 -33
364 50 29
365 50 29
366 50 29
367 -25 23
368 -25 23
369 -25 23
370 -25 23
371 -25 23
372 -25 23
373 11 7
374 11 7
375 11 7
376 11 7
377 12 -25
378 12 -25
379 12 -25
380 12 -25
381 45 -41
382 45 -41
383 45 -41
384 14 25
385 14 25
386 14 25
387 14 25
388 14 25
389 14 25
390 -6 9
391 -6 9
392 -6 9
393 -6 9
394 -4 3
395 -4 3
396 48 -9
397 48 -9
398 48 -9
399 48 -9
400 48 -9
401 -14 -47
402 -14 -47
403 -14 -47
404 -14 -47
405 -14 -47
406 -35 12
407 -35 12
408 -35 12
409 -35 -23
410 -35 -23
411 -35 -23
412 -35 -23
413 -35 -23
414 -35 -23
415 17 -45
416 17 -45
417 17 -45
418 43 -43
419 43 -43
420 -25 -41
421 -25 -41
422 -25 -41
423 14 -11
424 14 -11
425 14 -11
426 14 -11
427 14 -11
428 14 -11
429 45 10
430 45 10
431 48 -40
432 48 -40
433 48 -40
434 48 -40
435 48 -40
436 -1 -2
437 -1 -2
438 -1 -2
439 -1 -2
440 -1 -2
441 -17 -17
442 -17 -17
443 -17 -17
444 -17 -17
445 -17 -17
446 -21 30
447 -21 30
448 -21 30
449 -46 31
450 -46 31
451 -46 31
452 -46 31
453 -46 31
454 -46 31
455 -9 0
456 -9 0
457 17 -38
458 17 -38
459 17 -38
460 17 -38
461 17 -38
462 17 -38
463 -6 -45
464 -6 -45
465 4 2
466 4 2
467 4 2
468 4 2
469 25 4
470 25 4
471 25 4
472 25 4
473 18 37
474 18 37
475 18 37
476 18 37
477 18 37
478 16 1
479 16 1
480 -30 28
481 -30 28
482 -30 28
483 -30 28
484 -30 28
485 -30 28
486 5 -23
487 5 -23
488 43 -39
489 43 -39
490 -36 -5
491 -36 -5
492 -36 -5
493 -36 -5
494 -36 -5
495 -36 -5
496 -36 -5
497 -21 -8
498 -21 -8
499 -21 -8
500 -21 -8
501 -21 -8
502 -42 -46
503 -42 -46
504 -42 -46
505 8 32
506 8 32
507 8 32
508 8 32
509 8 32
510 8 32
511 8 32
512 4 12
513 4 12
514 4 12
515 -43 -25
516 -43 -25
517 -43 -25
518 -43 -25
519 -43 -25
520 -43 -25
521 45 11
522 45 11
523 45 11
524 45 11
525 45 11
526 45 11
527 -25 -9
528 -25 -9
529 -25 -9
530 -25 -9
531 6 24
532 6 24
533 6 24
534 31 4
535 31 4
536 31 4
537 31 4
538 31 4
539 -16 -42
540 -16 -42
541 -16 -42
542 -16 -42
543 10 45
544 10 45
545 10 45
546 -47 19
547 -47 19
548 -47 19
549 5 3
550 5 3
551 5 3
552 5 3
553 5 3
554 5 3
555 -38 -34
556 -38 -34
557 28 -4
558 28 -4
559 28 -4
560 28 -4
561 -42 45
562 -42 45
563 -42 45
564 -30 30
565 -30 30
566 -30 30
567 -30 30
568 -30 30
569 -49 -12
570 -49 -12
571 -49 -12
572 -49 -12
573 -49 -12
574 -49 -12
575 -41 24
576 -41 24
577 -41 24
578 -41 24
579 -41 24
580 -41 24
581 -39 -45
582 -39 -45
583 -39 -45
584 -39 -45
585 -39 -45
586 -39 -45
587 -39 -45
588 -8 41
589 -8 41
590 -8 41
591 -8 41
592 -8 41
593 -8 41
594 -41 -41
595 -41 -41
596 -41 -41
597 -41 -41
598 -29 22
599 -29 22
600 -29 22
601 -29 22
602 -29 22
603 29 1
604 29 1
605 -33 -3
606 -33 -3
607 -33 -3
608 50 -42
609 50 -42
610 -1 45
611 -1 45
612 -1 45
613 -1 45
614 -46 26
615 -46 26
616 -46 26
617 -49 -11
618 -49 -11
619 -49 -11
620 -49 -11
621 -49 -11
DEMAND_SECTION
1 0
2 200
3 50
4 10
5 10
6 10
7 10
8 200
9 100
10 10
11 200
12 50
13 10
14 200
15 100
16 10
17 100
18 50
19 200
20 200
21 50
22 10
23 200
24 100
25 10
26 10
27 200
28 100
29 50
30 10
31 10
32 200
33 200
34 200
35 100
36 50
37 10
38 10
39 10
40 200
41 200
42 50
43 200
44 200
45 200
46 50
47 10
48 10
49 10
50 200
51 100
52 200
53 200
54 10
55 10
56 10
57 200
58 200
59 10
60 10
61 200
62 200
63 10
64 10
65 10
66 200
67 10
68 10
69 10
70 200
71 50
72 200
73 100
74 10
75 10
76 10
77 200
78 100
79 50
80 10
81 10
82 10
83 200
84 100
85 200
86 200
87 50
88 200
89 200
90 50
91 10
92 10
93 10
94 100
95 50
96 10
97 10
98 10
99 200
100 200
101 50
102 10
103 100
104 50
105 10
106 10
107 10
108 10
109 100
110 10
111 10
112 10
113 200
114 100
115 10
116 10
117 10
118 10
119 200
120 10
121 10
122 10
123 10
124 100
125 10
126 10
127 10
128 100
129 50
130 10
131 10
132 10
133 10
134 200
135 200
136 50
137 10
138 10
139 10
140 10
141 200
142 100
143 50
144 10
145 10
146 200
147 100
148 10
149 10
150 10
151 10
152 200
153 100
154 50
155 10
156 10
157 10
158 10
159 200
160 10
161 200
162 200
163 50
164 10
165 200
166 10
167 100
168 10
169 10
170 10
171 100
172 50
173 10
174 10
175 10
176 200
177 50
178 200
179 50
180 10
181 200
182 200
183 100
184 100
185 50
186 10
187 10
188 200
189 50
190 10
191 10
192 10
193 10
194 200
195 200
196 50
197 10
198 200
199 200
200 50
201 200
202 200
203 10
204 10
205 10
206 10
207 100
208 50
209 10
210 10
211 10
212 10
213 100
214 10
215 10
216 10
217 200
218 10
219 10
220 200
221 200
222 50
223 10
224 200
225 200
226 50
227 10
228 10
229 200
230 100
231 10
232 200
233 200
234 50
235 10
236 100
237 50
238 10
239 10
240 10
241 100
242 50
243 10
244 200
245 200
246 50
247 10
248 10
249 10
250 200
251 10
252 200
253 50
254 10
255 10
256 100
257 50
258 10
259 10
260 10
261 200
262 100
263 50
264 10
265 10
266 10
267 10
268 200
269 100
270 200
271 200
272 10
273 10
274 10
275 10
276 100
277 50
278 10
279 10
280 10
281 10
282 100
283 50
284 10
285 10
286 10
287 10
288 100
289 10
290 10
291 10
292 200
293 200
294 10
295 10
296 10
297 10
298 200
299 10
300 10
301 200
302 200
303 50
304 10
305 10
306 10
307 200
308 200
309 50
310 10
311 10
312 200
313 10
314 10
315 10
316 200
317 100
318 10
319 200
320 100
321 50
322 10
323 200
324 10
325 10
326 10
327 10
328 200
329 100
330 50
331 10
332 10
333 10
334 10
335 200
336 200
337 50
338 10
339 10
340 200
341 200
342 50
343 10
344 200
345 50
346 10
347 200
348 100
349 50
350 10
351 10
352 10
353 100
354 10
355 10
356 200
357 100
358 50
359 10
360 100
361 50
362 10
363 10
364 200
365 100
366 50
367 200
368 100
369 50
370 10
371 10
372 10
373 200
374 100
375 50
376 10
377 200
378 200
379 10
380 10
381 200
382 10
383 10
384 200
385 100
386 10
387 10
388 10
389 10
390 200
391 200
392 10
393 10
394 200
395 50
396 100
397 50
398 10
399 10
400 10
401 200
402 10
403 10
404 10
405 10
406 200
407 10
408 10
409 200
410 200
411 50
412 10
413 10
414 10
415 200
416 100
417 50
418 200
419 200
420 200
421 100
422 10
423 100
424 50
425 10
426 10
427 10
428 10
429 200
430 10
431 200
432 100
433 10
434 10
435 10
436 200
437 200
438 10
439 10
440 10
441 200
442 100
443 10
444 10
445 10
446 200
447 100
448 10
449 200
450 200
451 10
452 10
453 10
454 10
455 200
456 200
457 200
458 100
459 10
460 10
461 10
462 10
463 200
464 100
465 200
466 100
467 10
468 10
469 100
470 50
471 10
472 10
473 100
474 10
475 10
476 10
477 10
478 200
479 50
480 100
481 50
482 10
483 10
484 10
485 10
486 200
487 200
488 200
489 200
490 200
491 200
492 50
493 10
494 10
495 10
496 10
497 200
498 10
499 10
500 10
501 10
502 200
503 10
504 10
505 200
506 100
507 50
508 10
509 10
510 10
511 10
512 200
513 200
514 10
515 200
516 50
517 10
518 10
519 10
520 10
521 200
522 200
523 10
524 10
525 10
526 10
527 200
528 50
529 10
530 10
531 200
532 100
533 10
534 200
535 50
536 10
537 10
538 10
539 100
540 10
541 10
542 10
543 200
544 200
545 50
546 200
547 50
548 10
549 200
550 200
551 10
552 10
553 10
554 10
555 100
556 50
557 200
558 100
559 50
560 10
561 200
562 100
563 50
564 200
565 200
566 10
567 10
568 10
569 200
570 200
571 10
572 10
573 10
574 10
575 200
576 50
577 10
578 10
579 10
580 10
581 200
582 100
583 50
584 10
585 10
586 10
587 10
588 100
589 50
590 10
591 10
592 10
593 10
594 200
595 100
596 10
597 10
598 200
599 200
600 50
601 10
602 10
603 200
604 50
605 200
606 10
607 10
608 200
609 50
610 100
611 10
612 10
613 10
614 100
615 50
616 10
617 200
618 200
619 10
620 10
621 10
DEPOT_SECTION
1
-1
EOF