Normalized Data/p04_27_normalized_splitx10_0.sol
620 -3 5 1 6 2 4 561 560 562 351 348 38 35 36 33 370 371 129 -7 9 8 294 295 296 292 293 291 403 404 400 402 401 -10 12 11 31 32 587 591 592 589 590 151 -30 26 29 27 28 504 509 505 506 532 530 -34 37 450 452 451 448 449 453 615 614 613 578 574 575 576 579 577 -42 43 233 231 232 234 316 317 -46 48 44 45 47 545 547 546 101 100 99 98 -53 55 54 52 51 229 228 230 478 477 -56 58 364 365 363 175 176 242 240 241 -59 57 49 50 200 201 203 202 205 204 385 387 -61 60 311 314 313 312 462 463 361 362 360 -67 68 65 66 343 344 345 102 103 107 106 105 104 386 384 388 383 -72 166 168 167 169 178 177 179 526 528 527 529 496 500 499 497 498 -73 75 71 74 493 490 489 492 491 495 494 605 606 604 353 354 -77 79 80 81 78 76 566 563 564 567 565 481 479 482 484 480 483 -94 95 235 239 236 238 519 514 515 517 516 518 412 408 410 409 411 413 -96 97 93 322 325 324 323 326 555 554 39 40 41 237 444 442 443 -111 109 108 110 181 182 180 430 431 432 434 433 426 427 -112 486 485 377 376 -113 114 116 254 253 252 251 213 268 267 440 441 -115 117 64 63 62 225 278 277 280 275 279 276 174 172 170 173 171 414 416 415 457 461 -130 127 131 128 369 367 368 366 600 598 599 597 601 -145 23 25 24 22 20 19 21 390 -147 148 149 150 146 193 159 158 274 269 273 270 272 271 -156 155 157 154 153 152 341 340 342 339 125 124 126 123 503 501 502 -165 194 195 196 580 581 586 582 585 583 584 594 593 595 596 -184 419 420 421 284 283 286 285 281 282 539 541 538 540 18 214 215 212 -185 183 186 197 198 199 164 439 437 436 438 -189 192 188 191 190 187 222 219 220 221 308 306 -216 393 454 455 435 -217 218 392 391 389 83 82 329 330 331 327 333 332 328 -223 224 226 227 90 92 87 91 88 89 359 -243 244 246 247 248 245 445 446 447 17 16 132 394 -257 256 259 258 255 140 397 398 399 396 395 429 428 523 524 525 520 -264 260 266 265 263 261 262 319 321 320 318 460 458 456 459 379 378 -287 289 290 288 568 573 571 570 572 569 618 616 620 617 619 -299 298 297 15 13 14 210 211 207 206 208 209 607 608 381 382 -304 303 305 301 302 300 70 69 521 522 469 470 -315 144 142 143 141 163 162 161 160 422 423 424 425 -336 335 338 334 337 249 250 349 347 350 346 -352 310 309 307 85 86 84 406 407 405 -358 356 355 357 139 136 134 137 135 138 133 476 473 475 474 472 -372 375 374 373 513 511 512 -418 417 380 488 487 -467 465 464 466 549 548 550 552 553 551 -471 468 533 535 537 536 534 602 603 557 559 558 556 -531 507 510 508 542 543 544 118 119 120 121 122 611 610 609 612 588 0 





OBJ=
4299.804
BEST_KNOWN=
0.000